; benchmark generated from python API
(set-info :status unknown)
(declare-datatypes ((RealState 0)) (((RMk1 (rval1 Real)) (RMk2 (rval2 Real)))))
 (assert
 (forall ((|v17:0| Real) )(forall ((|v16:1| Real) )(forall ((|v15:2| Real) )(forall ((|v14:3| Real) )(forall ((|v13:4| Real) )(forall ((|v12:5| Real) )(exists ((|v11:6_st| RealState) (val!7008 Real) )(exists ((|v10:7_st| RealState) (val!7009 Real) )(exists ((|v9:8_st| RealState) (val!7010 Real) )(exists ((|v8:9_st| RealState) (val!7011 Real) )(exists ((|v7:10_st| RealState) (val!7012 Real) )(exists ((|v6:11_st| RealState) (val!7013 Real) )(forall ((|v5:12| Real) )(forall ((|v4:13| Real) )(forall ((|v3:14| Real) )(forall ((|v2:15| Real) )(forall ((|v1:16| Real) )(forall ((|v0:17| Real) )(let ((?x1554 (- 19.0)))
 (let ((?x3185 (+ (+ (+ |v12:5| (* 6.0 |v0:17|)) (* 17.0 (rval2 |v6:11_st|))) (* (- 15.0) |v12:5|))))
 (let ((?x1335 (+ (+ (* (- 12.0) |v2:15|) (* 8.0 |v5:12|)) (* 8.0 |v0:17|))))
 (let ((?x1127 (rval2 |v6:11_st|)))
 (let ((?x2887 (* 19.0 ?x1127)))
 (let ((?x3121 (+ (+ (+ (* (- 16.0) |v1:16|) (* 4.0 |v12:5|)) (* (- 14.0) |v12:5|)) ?x2887)))
 (let (($x668 (and (<= ?x3121 2.0) (<= (+ ?x1335 (* (- 8.0) (rval2 |v7:10_st|))) 5.0))))
 (let ((?x865 (- 11.0)))
 (let ((?x754 (* 8.0 |v1:16|)))
 (let ((?x3198 (+ (+ (* 5.0 (rval2 |v10:7_st|)) (* (- 9.0) |v3:14|)) (* (- 12.0) (rval2 |v11:6_st|)))))
 (let ((?x1030 (* 6.0 ?x1127)))
 (let ((?x1298 (+ (+ (+ (* ?x865 (rval2 |v9:8_st|)) (* (- 13.0) |v5:12|)) (* 11.0 |v2:15|)) ?x1030)))
 (let ((?x624 (+ (+ (+ (* 11.0 |v1:16|) (* (- 2.0) |v1:16|)) (* 19.0 |v12:5|)) |v1:16|)))
 (let ((?x66 (+ (+ (+ (* 2.0 |v12:5|) (* (- 1.0) |v5:12|)) (* 16.0 ?x1127)) (* (- 5.0) (rval2 |v9:8_st|)))))
 (let (($x1800 (and (or (<= ?x66 2.0) (<= ?x624 12.0)) (or (<= ?x1298 ?x865) (<= (+ ?x3198 ?x754) ?x865)))))
 (let ((?x136 (+ (+ (+ (* 6.0 (rval2 |v10:7_st|)) (* (- 18.0) |v0:17|)) (* 5.0 |v4:13|)) (* (- 2.0) (rval2 |v11:6_st|)))))
 (let ((?x1466 (* 4.0 |v4:13|)))
 (let (($x372 (<= (+ (+ (+ (* 4.0 |v15:2|) (* 9.0 |v14:3|)) (* 4.0 |v5:12|)) ?x1466) ?x1554)))
 (let ((?x651 (+ (+ (* 19.0 |v13:4|) (* (- 14.0) (rval2 |v8:9_st|))) (* 2.0 (rval2 |v9:8_st|)))))
 (let ((?x3502 (- 9.0)))
 (let ((?x1011 (- 12.0)))
 (let ((?x2010 (* ?x1011 |v2:15|)))
 (let ((?x1277 (+ (+ (* 8.0 (rval2 |v11:6_st|)) (* (- 13.0) (rval2 |v10:7_st|))) (* 4.0 |v16:1|))))
 (let (($x1306 (and (and (<= (+ ?x1277 ?x2010) ?x3502) (<= (+ ?x651 (* 0.0 ?x1127)) 4.0)) (and $x372 (<= ?x136 13.0)))))
 (let ((?x3319 (+ (+ (+ (* 3.0 |v14:3|) (* ?x865 (rval2 |v10:7_st|))) (* 14.0 |v14:3|)) ?x754)))
 (let ((?x1885 (* 11.0 |v2:15|)))
 (let ((?x832 (+ (+ (+ (* ?x1011 |v3:14|) (* (- 2.0) (rval2 |v7:10_st|))) (* ?x1554 |v3:14|)) ?x1885)))
 (let ((?x1294 (- 4.0)))
 (let ((?x1603 (+ (+ (+ (* (- 3.0) |v16:1|) (* 18.0 |v2:15|)) (* (- 5.0) |v17:0|)) (* ?x1294 (rval2 |v7:10_st|)))))
 (let (($x1741 (and (or (<= ?x1603 ?x1294) (and (<= ?x832 20.0) (<= ?x3319 ?x865))) $x1306)))
 (let ((?x1613 (- 14.0)))
 (let ((?x274 (* 20.0 |v13:4|)))
 (let ((?x1222 (* 0.0 |v3:14|)))
 (let ((?x2394 (+ (+ (+ (* (- 5.0) |v17:0|) (* (- 5.0) (rval2 |v10:7_st|))) ?x1222) ?x274)))
 (let ((?x191 (+ (+ (+ (* 7.0 |v5:12|) (* 6.0 (rval2 |v8:9_st|))) (* 11.0 ?x1127)) (* (- 17.0) (rval2 |v8:9_st|)))))
 (let ((?x2313 (* 14.0 |v0:17|)))
 (let ((?x1871 (+ (+ (+ (* 3.0 ?x1127) (* ?x865 |v13:4|)) (* 9.0 (rval2 |v11:6_st|))) ?x2313)))
 (let ((?x2096 (* ?x1294 |v2:15|)))
 (let ((?x1079 (+ (+ (+ (* 12.0 |v15:2|) (* (- 7.0) |v12:5|)) (* 16.0 (rval2 |v10:7_st|))) ?x2096)))
 (let (($x2335 (and (or (<= ?x1079 2.0) (<= ?x1871 ?x865)) (or (<= ?x191 6.0) (<= ?x2394 ?x1613)))))
 (let ((?x1200 (- 15.0)))
 (let ((?x576 (* ?x1200 |v3:14|)))
 (let ((?x1302 (+ (+ (* (- 13.0) |v3:14|) (* (- 18.0) (rval2 |v7:10_st|))) (* (- 3.0) (rval2 |v11:6_st|)))))
 (let ((?x2813 (* 9.0 ?x1127)))
 (let ((?x2329 (* 19.0 |v16:1|)))
 (let ((?x2999 (+ (+ (+ (* (- 17.0) (rval2 |v9:8_st|)) (* 15.0 (rval2 |v8:9_st|))) ?x2329) ?x2813)))
 (let ((?x2752 (- 3.0)))
 (let ((?x2221 (* 6.0 |v2:15|)))
 (let (($x2169 (<= (+ (+ (+ (* ?x1011 |v0:17|) (* 4.0 |v17:0|)) (* (- 17.0) |v3:14|)) ?x2221) ?x2752)))
 (let (($x523 (<= (+ (+ (+ (* 8.0 |v12:5|) (* 5.0 |v3:14|)) ?x1030) (* 15.0 |v14:3|)) 16.0)))
 (let (($x131 (and (and (or $x523 $x2169) (and (<= ?x2999 9.0) (<= (+ ?x1302 ?x576) ?x1554))) $x2335)))
 (let ((?x2216 (- 18.0)))
 (let ((?x517 (* ?x2216 |v2:15|)))
 (let ((?x524 (- 17.0)))
 (let ((?x2929 (* ?x524 |v5:12|)))
 (let ((?x1359 (+ (+ (+ (* 12.0 |v13:4|) (* (- 1.0) |v0:17|)) (* 6.0 |v14:3|)) ?x2929)))
 (let (($x2777 (and (<= ?x1359 ?x3502) (<= (+ (+ (+ |v12:5| (* 9.0 |v16:1|)) (* ?x2216 |v12:5|)) ?x517) 8.0))))
 (let ((?x696 (* 12.0 |v4:13|)))
 (let ((?x424 (+ (+ (+ (* (- 2.0) |v12:5|) (* 17.0 |v16:1|)) (* 13.0 (rval2 |v10:7_st|))) ?x696)))
 (let ((?x1148 (- 8.0)))
 (let (($x3431 (<= (+ (+ (+ ?x274 (* (- 2.0) |v12:5|)) (* 19.0 |v14:3|)) (* ?x3502 |v2:15|)) ?x1148)))
 (let ((?x2232 (* 2.0 |v1:16|)))
 (let ((?x2602 (+ (+ (+ (* (- 5.0) |v14:3|) (* (- 10.0) |v16:1|)) (* 16.0 |v14:3|)) ?x2232)))
 (let ((?x1553 (* 20.0 |v0:17|)))
 (let ((?x1189 (+ (+ (+ (* (- 2.0) |v14:3|) (* 16.0 |v1:16|)) (* (- 13.0) |v0:17|)) ?x1553)))
 (let ((?x3419 (- 1.0)))
 (let (($x1224 (<= (+ (+ (+ (* ?x865 |v17:0|) (* 2.0 ?x1127)) (* 15.0 |v2:15|)) ?x2010) ?x3419)))
 (let (($x1032 (or (or $x1224 (and (<= ?x1189 16.0) (<= ?x2602 6.0))) (or (or $x3431 (<= ?x424 7.0)) $x2777))))
 (let (($x101 (and (and $x1032 $x131) (or $x1741 (and $x1800 (and $x668 (<= ?x3185 ?x1554)))))))
 (let ((?x217 (* ?x1613 |v4:13|)))
 (let (($x1090 (<= (+ (+ (+ (* 15.0 |v4:13|) (* 5.0 |v12:5|)) (* 18.0 |v14:3|)) ?x217) 13.0)))
 (let (($x785 (not (= |v6:11_st| (RMk1 val!7013)))))
 (let (($x1017 (not (= |v7:10_st| (RMk1 val!7012)))))
 (let (($x2912 (not (= |v8:9_st| (RMk1 val!7011)))))
 (let (($x2702 (not (= |v9:8_st| (RMk1 val!7010)))))
 (let (($x1978 (not (= |v10:7_st| (RMk1 val!7009)))))
 (let (($x891 (not (= |v11:6_st| (RMk1 val!7008)))))
 (and $x891 $x1978 $x2702 $x2912 $x1017 $x785 (or $x1090 $x101))))))))))))))))))))))))))))))))))))))))))))))))))))))))))))))))))))))))))))))))
 )
 )
 )
 )
 )
 )
 )
 )
 )
 )
 )
 )
 )
 )
 )
 )
 )
 )
(check-sat)
